100
32
8
1
16
17
24
19
18
8
18
24
10
16
17
7
22
8
18
21
17
19
21
9
27
3
7
17
1
21
23
18
4
17
27
18
25
18
19
4
32
27
2
9
23
17
9
5
18
12
14
23
19
16
14
22
19
15
27
4
6
15
10
6
3
21
14
7
27
21
2
2
24
12
14
13
10
21
15
8
2
15
19
26
15
20
11
14
10
13
20
5
6
14
15
23
14
9
12
7
13
12